NAME: st70-16-4
TYPE: TSP
COMMENT: min_cost = 283.22
DIMENSION: 16
EDGE_WEIGHT_TYPE: EUC_2D
NODE_COORD_SECTION
1 79 17
2 73 28
3 78 92
4 69 23
5 77 13
6 83 86
7 57 91
8 27 43
9 44 33
10 37 64
11 79 70
12 58 85
13 52 18
14 72 42
15 8 19
16 41 76
EOF
